
n= 20; m=8;




44	52	14	2	74	31	25	30	34	69	81	26	27	93	74	15	6	14	48	65
49	71	25	20	36	62	12	8	6	73	38	52	25	64	24	9	40	12	35	65
60	57	14	54	60	22	43	40	3	47	48	40	36	44	70	17	23	16	73	50
10	23	8	61	71	29	25	48	54	28	6	56	54	41	19	15	1	6	28	5
58	23	17	16	18	31	20	30	40	30	6	17	31	17	34	35	55	71	15	44
54	68	59	58	53	48	62	24	21	32	3	40	17	43	41	25	34	44	14	36
20	33	73	20	65	28	53	6	67	69	32	25	26	15	20	16	1	20	29	13
60	57	14	54	60	22	43	40	3	47	48	40	36	44	70	17	23	16	73	50
																		
 
